BAYES
183
2 2 2 2 2 2 2 2 2 2 2 2 2 2 2 2 2 3 3 3 3 2 3 3 2 2 2 2 2 2 2 2 2 2 2 2 2 2 2 2 2 2 2 2 2 2 2 2 2 2 2 2 2 2 2 2 2 2 2 2 2 2 2 2 2 2 2 2 2 2 2 2 2 2 2 3 3 3 3 2 3 3 2 2 2 2 2 2 2 2 2 2 2 2 2 2 2 2 2 2 2 2 2 2 2 2 2 2 2 2 2 2 2 2 2 2 2 2 2 2 2 2 2 2 2 2 2 2 2 2 2 2 2 3 3 3 3 2 3 3 2 2 2 2 2 2 2 2 2 2 2 2 2 2 2 2 2 2 2 2 2 2 2 2 2 2 2 2 2 2 2 2 2 2 2 2 2 2 2 2 2 2 2 
183
1	0
1	1
1	2
1	3
1	4
1	5
1	6
1	7
1	8
1	9
1	10
1	11
1	12
1	13
1	14
1	15
1	16
5	4	14	15	8	17
5	5	14	16	9	18
4	0	13	15	19
5	6	14	15	10	20
3	2	12	21
4	1	12	16	22
5	7	14	16	11	23
3	3	13	24
3	20	22	25
3	23	19	26
3	18	17	27
3	23	20	28
3	24	21	29
3	19	22	30
3	23	22	31
3	20	19	32
2	17	33
3	21	25	34
2	18	35
3	24	26	36
2	20	37
2	22	38
2	23	39
2	19	40
3	22	21	41
3	20	17	42
3	19	24	43
3	23	18	44
3	28	27	45
3	30	29	46
3	20	19	47
3	21	31	48
3	23	22	49
3	24	32	50
3	1	0	51
3	51	2	52
3	52	3	53
3	53	4	54
3	54	5	55
3	55	6	56
3	7	56	57
4	34	33	8	58
4	36	35	9	59
4	38	37	10	60
4	40	39	11	61
4	42	41	12	62
4	44	43	13	63
4	46	45	14	64
4	48	47	15	65
4	50	49	16	66
1	67
1	68
1	69
1	70
1	71
1	72
1	73
1	74
5	71	64	65	58	75
5	72	64	66	59	76
4	67	63	65	77
5	73	64	65	60	78
3	69	62	79
4	68	62	66	80
5	74	64	66	61	81
3	70	63	82
3	78	80	83
3	81	77	84
3	76	75	85
3	81	78	86
3	82	79	87
3	77	80	88
3	81	80	89
3	78	77	90
2	75	91
3	79	83	92
2	76	93
3	82	84	94
2	78	95
2	80	96
2	81	97
2	77	98
3	80	79	99
3	78	75	100
3	77	82	101
3	81	76	102
3	86	85	103
3	88	87	104
3	78	77	105
3	79	89	106
3	81	80	107
3	82	90	108
3	68	67	109
3	109	69	110
3	110	70	111
3	111	71	112
3	112	72	113
3	113	73	114
3	74	114	115
4	92	91	58	116
4	94	93	59	117
4	96	95	60	118
4	98	97	61	119
4	100	99	62	120
4	102	101	63	121
4	104	103	64	122
4	106	105	65	123
4	108	107	66	124
1	125
1	126
1	127
1	128
1	129
1	130
1	131
1	132
5	129	122	123	116	133
5	130	122	124	117	134
4	125	121	123	135
5	131	122	123	118	136
3	127	120	137
4	126	120	124	138
5	132	122	124	119	139
3	128	121	140
3	136	138	141
3	139	135	142
3	134	133	143
3	139	136	144
3	140	137	145
3	135	138	146
3	139	138	147
3	136	135	148
2	133	149
3	137	141	150
2	134	151
3	140	142	152
2	136	153
2	138	154
2	139	155
2	135	156
3	138	137	157
3	136	133	158
3	135	140	159
3	139	134	160
3	144	143	161
3	146	145	162
3	136	135	163
3	137	147	164
3	139	138	165
3	140	148	166
3	126	125	167
3	167	127	168
3	168	128	169
3	169	129	170
3	170	130	171
3	171	131	172
3	132	172	173
4	150	149	116	174
4	152	151	117	175
4	154	153	118	176
4	156	155	119	177
4	158	157	120	178
4	160	159	121	179
4	162	161	122	180
4	164	163	123	181
4	166	165	124	182

2
 1.0 1.0

2
 1.0 1.0

2
 1.0 1.0

2
 1.0 1.0

2
 1.0 1.0

2
 1.0 1.0

2
 1.0 1.0

2
 1.0 1.0

2
 1.0 0.0

2
 0.0 1.0

2
 0.0 1.0

2
 1.0 0.0

2
 1.0 0.0

2
 1.0 0.0

2
 0.0 1.0

2
 0.0 1.0

2
 1.0 0.0

48
 1.0 0.0 0.0
 1.0 0.0 0.0
 1.0 0.0 0.0
 1.0 0.0 0.0
 1.0 0.0 0.0
 1.0 0.0 0.0
 1.0 0.0 0.0
 1.0 0.0 0.0
 1.0 0.0 0.0
 1.0 0.0 0.0
 1.0 0.0 0.0
 1.0 0.0 0.0
 1.0 0.0 0.0
 1.0 0.0 0.0
 1.0 0.0 0.0
 0.0 0.75 0.25

48
 1.0 0.0 0.0
 1.0 0.0 0.0
 1.0 0.0 0.0
 1.0 0.0 0.0
 1.0 0.0 0.0
 1.0 0.0 0.0
 1.0 0.0 0.0
 1.0 0.0 0.0
 1.0 0.0 0.0
 1.0 0.0 0.0
 1.0 0.0 0.0
 1.0 0.0 0.0
 1.0 0.0 0.0
 1.0 0.0 0.0
 1.0 0.0 0.0
 0.0 0.75 0.25

24
 1.0 0.0 0.0
 1.0 0.0 0.0
 1.0 0.0 0.0
 1.0 0.0 0.0
 1.0 0.0 0.0
 1.0 0.0 0.0
 1.0 0.0 0.0
 0.0 0.75 0.25

48
 1.0 0.0 0.0
 1.0 0.0 0.0
 1.0 0.0 0.0
 1.0 0.0 0.0
 1.0 0.0 0.0
 1.0 0.0 0.0
 1.0 0.0 0.0
 1.0 0.0 0.0
 1.0 0.0 0.0
 1.0 0.0 0.0
 1.0 0.0 0.0
 1.0 0.0 0.0
 1.0 0.0 0.0
 1.0 0.0 0.0
 1.0 0.0 0.0
 0.0 0.75 0.25

8
 1.0 0.0
 1.0 0.0
 1.0 0.0
 0.0 1.0

24
 1.0 0.0 0.0
 1.0 0.0 0.0
 1.0 0.0 0.0
 1.0 0.0 0.0
 1.0 0.0 0.0
 1.0 0.0 0.0
 1.0 0.0 0.0
 0.0 0.75 0.25

48
 1.0 0.0 0.0
 1.0 0.0 0.0
 1.0 0.0 0.0
 1.0 0.0 0.0
 1.0 0.0 0.0
 1.0 0.0 0.0
 1.0 0.0 0.0
 1.0 0.0 0.0
 1.0 0.0 0.0
 1.0 0.0 0.0
 1.0 0.0 0.0
 1.0 0.0 0.0
 1.0 0.0 0.0
 1.0 0.0 0.0
 1.0 0.0 0.0
 0.0 0.75 0.25

8
 1.0 0.0
 1.0 0.0
 1.0 0.0
 0.0 1.0

18
 1.0 0.0
 1.0 0.0
 0.0 1.0
 1.0 0.0
 1.0 0.0
 0.0 1.0
 0.0 1.0
 0.0 1.0
 0.0 0.0

18
 1.0 0.0
 1.0 0.0
 0.0 1.0
 1.0 0.0
 1.0 0.0
 0.0 1.0
 0.0 1.0
 0.0 1.0
 0.0 0.0

18
 1.0 0.0
 0.0 1.0
 1.0 0.0
 0.0 1.0
 0.0 0.0
 0.0 1.0
 1.0 0.0
 0.0 1.0
 1.0 0.0

18
 1.0 0.0
 0.0 1.0
 1.0 0.0
 0.0 1.0
 0.0 0.0
 0.0 1.0
 1.0 0.0
 0.0 1.0
 1.0 0.0

8
 1.0 0.0
 0.0 1.0
 0.0 1.0
 0.0 0.0

18
 1.0 0.0
 0.0 1.0
 0.0 1.0
 0.0 1.0
 0.0 0.0
 0.0 0.0
 0.0 1.0
 0.0 0.0
 0.0 0.0

18
 1.0 0.0
 0.0 1.0
 0.0 1.0
 0.0 1.0
 0.0 0.0
 0.0 0.0
 0.0 1.0
 0.0 0.0
 0.0 0.0

18
 1.0 0.0
 0.0 1.0
 0.0 1.0
 0.0 1.0
 0.0 0.0
 0.0 0.0
 0.0 1.0
 0.0 0.0
 0.0 0.0

6
 1.0 0.0
 0.0 1.0
 1.0 0.0

8
 1.0 0.0
 0.0 1.0
 0.0 1.0
 0.0 0.0

6
 1.0 0.0
 0.0 1.0
 1.0 0.0

8
 1.0 0.0
 0.0 1.0
 0.0 1.0
 0.0 0.0

6
 1.0 0.0
 0.0 1.0
 0.0 1.0

6
 1.0 0.0
 0.0 1.0
 1.0 0.0

6
 1.0 0.0
 0.0 1.0
 0.0 1.0

6
 1.0 0.0
 0.0 1.0
 1.0 0.0

12
 1.0 0.0
 0.0 1.0
 0.0 1.0
 0.0 0.0
 0.0 1.0
 0.0 0.0

18
 1.0 0.0
 0.0 1.0
 1.0 0.0
 0.0 1.0
 0.0 0.0
 0.0 1.0
 1.0 0.0
 0.0 1.0
 1.0 0.0

12
 1.0 0.0
 0.0 1.0
 0.0 1.0
 0.0 0.0
 0.0 1.0
 0.0 0.0

18
 1.0 0.0
 0.0 1.0
 1.0 0.0
 0.0 1.0
 0.0 0.0
 0.0 1.0
 1.0 0.0
 0.0 1.0
 1.0 0.0

8
 1.0 0.0
 0.0 1.0
 0.0 1.0
 0.0 0.0

8
 1.0 0.0
 0.0 1.0
 0.0 1.0
 0.0 0.0

18
 1.0 0.0
 0.0 1.0
 1.0 0.0
 0.0 1.0
 0.0 0.0
 0.0 1.0
 1.0 0.0
 0.0 1.0
 1.0 0.0

8
 1.0 0.0
 0.0 1.0
 0.0 1.0
 0.0 0.0

18
 1.0 0.0
 0.0 1.0
 1.0 0.0
 0.0 1.0
 0.0 0.0
 0.0 1.0
 1.0 0.0
 0.0 1.0
 1.0 0.0

8
 1.0 0.0
 0.0 1.0
 0.0 1.0
 0.0 0.0

8
 1.0 0.0
 0.0 1.0
 0.0 1.0
 0.0 0.0

8
 1.0 0.0
 0.0 1.0
 0.0 1.0
 0.0 0.0

8
 1.0 0.0
 0.0 1.0
 0.0 1.0
 0.0 0.0

8
 1.0 0.0
 0.0 1.0
 0.0 1.0
 0.0 0.0

8
 1.0 0.0
 0.0 1.0
 0.0 1.0
 0.0 0.0

8
 1.0 0.0
 0.0 1.0
 0.0 1.0
 0.0 0.0

8
 0.0 0.0
 0.0 1.0
 0.0 1.0
 0.0 0.0

16
 1.0 0.0
 0.0 1.0
 1.0 0.0
 1.0 0.0
 0.0 1.0
 0.0 1.0
 0.0 0.0
 0.0 0.0

16
 1.0 0.0
 0.0 1.0
 1.0 0.0
 1.0 0.0
 0.0 1.0
 0.0 1.0
 0.0 0.0
 0.0 0.0

16
 1.0 0.0
 0.0 1.0
 1.0 0.0
 1.0 0.0
 0.0 1.0
 0.0 1.0
 0.0 0.0
 0.0 0.0

16
 1.0 0.0
 0.0 1.0
 1.0 0.0
 1.0 0.0
 0.0 1.0
 0.0 1.0
 0.0 0.0
 0.0 0.0

16
 1.0 0.0
 0.0 1.0
 1.0 0.0
 1.0 0.0
 0.0 1.0
 0.0 1.0
 0.0 0.0
 0.0 0.0

16
 1.0 0.0
 0.0 1.0
 1.0 0.0
 1.0 0.0
 0.0 1.0
 0.0 1.0
 0.0 0.0
 0.0 0.0

16
 1.0 0.0
 0.0 1.0
 1.0 0.0
 1.0 0.0
 0.0 1.0
 0.0 1.0
 0.0 0.0
 0.0 0.0

16
 1.0 0.0
 0.0 1.0
 1.0 0.0
 1.0 0.0
 0.0 1.0
 0.0 1.0
 0.0 0.0
 0.0 0.0

16
 1.0 0.0
 0.0 1.0
 1.0 0.0
 1.0 0.0
 0.0 1.0
 0.0 1.0
 0.0 0.0
 0.0 0.0

2
 1.0 1.0

2
 1.0 1.0

2
 1.0 1.0

2
 1.0 1.0

2
 1.0 1.0

2
 1.0 1.0

2
 1.0 1.0

2
 1.0 1.0

48
 1.0 0.0 0.0
 1.0 0.0 0.0
 1.0 0.0 0.0
 1.0 0.0 0.0
 1.0 0.0 0.0
 1.0 0.0 0.0
 1.0 0.0 0.0
 1.0 0.0 0.0
 1.0 0.0 0.0
 1.0 0.0 0.0
 1.0 0.0 0.0
 1.0 0.0 0.0
 1.0 0.0 0.0
 1.0 0.0 0.0
 1.0 0.0 0.0
 0.0 0.75 0.25

48
 1.0 0.0 0.0
 1.0 0.0 0.0
 1.0 0.0 0.0
 1.0 0.0 0.0
 1.0 0.0 0.0
 1.0 0.0 0.0
 1.0 0.0 0.0
 1.0 0.0 0.0
 1.0 0.0 0.0
 1.0 0.0 0.0
 1.0 0.0 0.0
 1.0 0.0 0.0
 1.0 0.0 0.0
 1.0 0.0 0.0
 1.0 0.0 0.0
 0.0 0.75 0.25

24
 1.0 0.0 0.0
 1.0 0.0 0.0
 1.0 0.0 0.0
 1.0 0.0 0.0
 1.0 0.0 0.0
 1.0 0.0 0.0
 1.0 0.0 0.0
 0.0 0.75 0.25

48
 1.0 0.0 0.0
 1.0 0.0 0.0
 1.0 0.0 0.0
 1.0 0.0 0.0
 1.0 0.0 0.0
 1.0 0.0 0.0
 1.0 0.0 0.0
 1.0 0.0 0.0
 1.0 0.0 0.0
 1.0 0.0 0.0
 1.0 0.0 0.0
 1.0 0.0 0.0
 1.0 0.0 0.0
 1.0 0.0 0.0
 1.0 0.0 0.0
 0.0 0.75 0.25

8
 1.0 0.0
 1.0 0.0
 1.0 0.0
 0.0 1.0

24
 1.0 0.0 0.0
 1.0 0.0 0.0
 1.0 0.0 0.0
 1.0 0.0 0.0
 1.0 0.0 0.0
 1.0 0.0 0.0
 1.0 0.0 0.0
 0.0 0.75 0.25

48
 1.0 0.0 0.0
 1.0 0.0 0.0
 1.0 0.0 0.0
 1.0 0.0 0.0
 1.0 0.0 0.0
 1.0 0.0 0.0
 1.0 0.0 0.0
 1.0 0.0 0.0
 1.0 0.0 0.0
 1.0 0.0 0.0
 1.0 0.0 0.0
 1.0 0.0 0.0
 1.0 0.0 0.0
 1.0 0.0 0.0
 1.0 0.0 0.0
 0.0 0.75 0.25

8
 1.0 0.0
 1.0 0.0
 1.0 0.0
 0.0 1.0

18
 1.0 0.0
 1.0 0.0
 0.0 1.0
 1.0 0.0
 1.0 0.0
 0.0 1.0
 0.0 1.0
 0.0 1.0
 0.0 0.0

18
 1.0 0.0
 1.0 0.0
 0.0 1.0
 1.0 0.0
 1.0 0.0
 0.0 1.0
 0.0 1.0
 0.0 1.0
 0.0 0.0

18
 1.0 0.0
 0.0 1.0
 1.0 0.0
 0.0 1.0
 0.0 0.0
 0.0 1.0
 1.0 0.0
 0.0 1.0
 1.0 0.0

18
 1.0 0.0
 0.0 1.0
 1.0 0.0
 0.0 1.0
 0.0 0.0
 0.0 1.0
 1.0 0.0
 0.0 1.0
 1.0 0.0

8
 1.0 0.0
 0.0 1.0
 0.0 1.0
 0.0 0.0

18
 1.0 0.0
 0.0 1.0
 0.0 1.0
 0.0 1.0
 0.0 0.0
 0.0 0.0
 0.0 1.0
 0.0 0.0
 0.0 0.0

18
 1.0 0.0
 0.0 1.0
 0.0 1.0
 0.0 1.0
 0.0 0.0
 0.0 0.0
 0.0 1.0
 0.0 0.0
 0.0 0.0

18
 1.0 0.0
 0.0 1.0
 0.0 1.0
 0.0 1.0
 0.0 0.0
 0.0 0.0
 0.0 1.0
 0.0 0.0
 0.0 0.0

6
 1.0 0.0
 0.0 1.0
 1.0 0.0

8
 1.0 0.0
 0.0 1.0
 0.0 1.0
 0.0 0.0

6
 1.0 0.0
 0.0 1.0
 1.0 0.0

8
 1.0 0.0
 0.0 1.0
 0.0 1.0
 0.0 0.0

6
 1.0 0.0
 0.0 1.0
 0.0 1.0

6
 1.0 0.0
 0.0 1.0
 1.0 0.0

6
 1.0 0.0
 0.0 1.0
 0.0 1.0

6
 1.0 0.0
 0.0 1.0
 1.0 0.0

12
 1.0 0.0
 0.0 1.0
 0.0 1.0
 0.0 0.0
 0.0 1.0
 0.0 0.0

18
 1.0 0.0
 0.0 1.0
 1.0 0.0
 0.0 1.0
 0.0 0.0
 0.0 1.0
 1.0 0.0
 0.0 1.0
 1.0 0.0

12
 1.0 0.0
 0.0 1.0
 0.0 1.0
 0.0 0.0
 0.0 1.0
 0.0 0.0

18
 1.0 0.0
 0.0 1.0
 1.0 0.0
 0.0 1.0
 0.0 0.0
 0.0 1.0
 1.0 0.0
 0.0 1.0
 1.0 0.0

8
 1.0 0.0
 0.0 1.0
 0.0 1.0
 0.0 0.0

8
 1.0 0.0
 0.0 1.0
 0.0 1.0
 0.0 0.0

18
 1.0 0.0
 0.0 1.0
 1.0 0.0
 0.0 1.0
 0.0 0.0
 0.0 1.0
 1.0 0.0
 0.0 1.0
 1.0 0.0

8
 1.0 0.0
 0.0 1.0
 0.0 1.0
 0.0 0.0

18
 1.0 0.0
 0.0 1.0
 1.0 0.0
 0.0 1.0
 0.0 0.0
 0.0 1.0
 1.0 0.0
 0.0 1.0
 1.0 0.0

8
 1.0 0.0
 0.0 1.0
 0.0 1.0
 0.0 0.0

8
 1.0 0.0
 0.0 1.0
 0.0 1.0
 0.0 0.0

8
 1.0 0.0
 0.0 1.0
 0.0 1.0
 0.0 0.0

8
 1.0 0.0
 0.0 1.0
 0.0 1.0
 0.0 0.0

8
 1.0 0.0
 0.0 1.0
 0.0 1.0
 0.0 0.0

8
 1.0 0.0
 0.0 1.0
 0.0 1.0
 0.0 0.0

8
 1.0 0.0
 0.0 1.0
 0.0 1.0
 0.0 0.0

8
 0.0 0.0
 0.0 1.0
 0.0 1.0
 0.0 0.0

16
 1.0 0.0
 0.0 1.0
 1.0 0.0
 1.0 0.0
 0.0 1.0
 0.0 1.0
 0.0 0.0
 0.0 0.0

16
 1.0 0.0
 0.0 1.0
 1.0 0.0
 1.0 0.0
 0.0 1.0
 0.0 1.0
 0.0 0.0
 0.0 0.0

16
 1.0 0.0
 0.0 1.0
 1.0 0.0
 1.0 0.0
 0.0 1.0
 0.0 1.0
 0.0 0.0
 0.0 0.0

16
 1.0 0.0
 0.0 1.0
 1.0 0.0
 1.0 0.0
 0.0 1.0
 0.0 1.0
 0.0 0.0
 0.0 0.0

16
 1.0 0.0
 0.0 1.0
 1.0 0.0
 1.0 0.0
 0.0 1.0
 0.0 1.0
 0.0 0.0
 0.0 0.0

16
 1.0 0.0
 0.0 1.0
 1.0 0.0
 1.0 0.0
 0.0 1.0
 0.0 1.0
 0.0 0.0
 0.0 0.0

16
 1.0 0.0
 0.0 1.0
 1.0 0.0
 1.0 0.0
 0.0 1.0
 0.0 1.0
 0.0 0.0
 0.0 0.0

16
 1.0 0.0
 0.0 1.0
 1.0 0.0
 1.0 0.0
 0.0 1.0
 0.0 1.0
 0.0 0.0
 0.0 0.0

16
 1.0 0.0
 0.0 1.0
 1.0 0.0
 1.0 0.0
 0.0 1.0
 0.0 1.0
 0.0 0.0
 0.0 0.0

2
 1.0 1.0

2
 1.0 1.0

2
 1.0 1.0

2
 1.0 1.0

2
 1.0 1.0

2
 1.0 1.0

2
 1.0 1.0

2
 1.0 1.0

48
 1.0 0.0 0.0
 1.0 0.0 0.0
 1.0 0.0 0.0
 1.0 0.0 0.0
 1.0 0.0 0.0
 1.0 0.0 0.0
 1.0 0.0 0.0
 1.0 0.0 0.0
 1.0 0.0 0.0
 1.0 0.0 0.0
 1.0 0.0 0.0
 1.0 0.0 0.0
 1.0 0.0 0.0
 1.0 0.0 0.0
 1.0 0.0 0.0
 0.0 0.75 0.25

48
 1.0 0.0 0.0
 1.0 0.0 0.0
 1.0 0.0 0.0
 1.0 0.0 0.0
 1.0 0.0 0.0
 1.0 0.0 0.0
 1.0 0.0 0.0
 1.0 0.0 0.0
 1.0 0.0 0.0
 1.0 0.0 0.0
 1.0 0.0 0.0
 1.0 0.0 0.0
 1.0 0.0 0.0
 1.0 0.0 0.0
 1.0 0.0 0.0
 0.0 0.75 0.25

24
 1.0 0.0 0.0
 1.0 0.0 0.0
 1.0 0.0 0.0
 1.0 0.0 0.0
 1.0 0.0 0.0
 1.0 0.0 0.0
 1.0 0.0 0.0
 0.0 0.75 0.25

48
 1.0 0.0 0.0
 1.0 0.0 0.0
 1.0 0.0 0.0
 1.0 0.0 0.0
 1.0 0.0 0.0
 1.0 0.0 0.0
 1.0 0.0 0.0
 1.0 0.0 0.0
 1.0 0.0 0.0
 1.0 0.0 0.0
 1.0 0.0 0.0
 1.0 0.0 0.0
 1.0 0.0 0.0
 1.0 0.0 0.0
 1.0 0.0 0.0
 0.0 0.75 0.25

8
 1.0 0.0
 1.0 0.0
 1.0 0.0
 0.0 1.0

24
 1.0 0.0 0.0
 1.0 0.0 0.0
 1.0 0.0 0.0
 1.0 0.0 0.0
 1.0 0.0 0.0
 1.0 0.0 0.0
 1.0 0.0 0.0
 0.0 0.75 0.25

48
 1.0 0.0 0.0
 1.0 0.0 0.0
 1.0 0.0 0.0
 1.0 0.0 0.0
 1.0 0.0 0.0
 1.0 0.0 0.0
 1.0 0.0 0.0
 1.0 0.0 0.0
 1.0 0.0 0.0
 1.0 0.0 0.0
 1.0 0.0 0.0
 1.0 0.0 0.0
 1.0 0.0 0.0
 1.0 0.0 0.0
 1.0 0.0 0.0
 0.0 0.75 0.25

8
 1.0 0.0
 1.0 0.0
 1.0 0.0
 0.0 1.0

18
 1.0 0.0
 1.0 0.0
 0.0 1.0
 1.0 0.0
 1.0 0.0
 0.0 1.0
 0.0 1.0
 0.0 1.0
 0.0 0.0

18
 1.0 0.0
 1.0 0.0
 0.0 1.0
 1.0 0.0
 1.0 0.0
 0.0 1.0
 0.0 1.0
 0.0 1.0
 0.0 0.0

18
 1.0 0.0
 0.0 1.0
 1.0 0.0
 0.0 1.0
 0.0 0.0
 0.0 1.0
 1.0 0.0
 0.0 1.0
 1.0 0.0

18
 1.0 0.0
 0.0 1.0
 1.0 0.0
 0.0 1.0
 0.0 0.0
 0.0 1.0
 1.0 0.0
 0.0 1.0
 1.0 0.0

8
 1.0 0.0
 0.0 1.0
 0.0 1.0
 0.0 0.0

18
 1.0 0.0
 0.0 1.0
 0.0 1.0
 0.0 1.0
 0.0 0.0
 0.0 0.0
 0.0 1.0
 0.0 0.0
 0.0 0.0

18
 1.0 0.0
 0.0 1.0
 0.0 1.0
 0.0 1.0
 0.0 0.0
 0.0 0.0
 0.0 1.0
 0.0 0.0
 0.0 0.0

18
 1.0 0.0
 0.0 1.0
 0.0 1.0
 0.0 1.0
 0.0 0.0
 0.0 0.0
 0.0 1.0
 0.0 0.0
 0.0 0.0

6
 1.0 0.0
 0.0 1.0
 1.0 0.0

8
 1.0 0.0
 0.0 1.0
 0.0 1.0
 0.0 0.0

6
 1.0 0.0
 0.0 1.0
 1.0 0.0

8
 1.0 0.0
 0.0 1.0
 0.0 1.0
 0.0 0.0

6
 1.0 0.0
 0.0 1.0
 0.0 1.0

6
 1.0 0.0
 0.0 1.0
 1.0 0.0

6
 1.0 0.0
 0.0 1.0
 0.0 1.0

6
 1.0 0.0
 0.0 1.0
 1.0 0.0

12
 1.0 0.0
 0.0 1.0
 0.0 1.0
 0.0 0.0
 0.0 1.0
 0.0 0.0

18
 1.0 0.0
 0.0 1.0
 1.0 0.0
 0.0 1.0
 0.0 0.0
 0.0 1.0
 1.0 0.0
 0.0 1.0
 1.0 0.0

12
 1.0 0.0
 0.0 1.0
 0.0 1.0
 0.0 0.0
 0.0 1.0
 0.0 0.0

18
 1.0 0.0
 0.0 1.0
 1.0 0.0
 0.0 1.0
 0.0 0.0
 0.0 1.0
 1.0 0.0
 0.0 1.0
 1.0 0.0

8
 1.0 0.0
 0.0 1.0
 0.0 1.0
 0.0 0.0

8
 1.0 0.0
 0.0 1.0
 0.0 1.0
 0.0 0.0

18
 1.0 0.0
 0.0 1.0
 1.0 0.0
 0.0 1.0
 0.0 0.0
 0.0 1.0
 1.0 0.0
 0.0 1.0
 1.0 0.0

8
 1.0 0.0
 0.0 1.0
 0.0 1.0
 0.0 0.0

18
 1.0 0.0
 0.0 1.0
 1.0 0.0
 0.0 1.0
 0.0 0.0
 0.0 1.0
 1.0 0.0
 0.0 1.0
 1.0 0.0

8
 1.0 0.0
 0.0 1.0
 0.0 1.0
 0.0 0.0

8
 1.0 0.0
 0.0 1.0
 0.0 1.0
 0.0 0.0

8
 1.0 0.0
 0.0 1.0
 0.0 1.0
 0.0 0.0

8
 1.0 0.0
 0.0 1.0
 0.0 1.0
 0.0 0.0

8
 1.0 0.0
 0.0 1.0
 0.0 1.0
 0.0 0.0

8
 1.0 0.0
 0.0 1.0
 0.0 1.0
 0.0 0.0

8
 1.0 0.0
 0.0 1.0
 0.0 1.0
 0.0 0.0

8
 0.0 0.0
 0.0 1.0
 0.0 1.0
 0.0 0.0

16
 0.0 0.0
 0.0 1.0
 0.0 0.0
 0.0 0.0
 0.0 1.0
 0.0 1.0
 0.0 0.0
 0.0 0.0

16
 1.0 0.0
 0.0 1.0
 1.0 0.0
 1.0 0.0
 0.0 1.0
 0.0 1.0
 0.0 0.0
 0.0 0.0

16
 1.0 0.0
 0.0 1.0
 1.0 0.0
 1.0 0.0
 0.0 1.0
 0.0 1.0
 0.0 0.0
 0.0 0.0

16
 0.0 0.0
 0.0 1.0
 0.0 0.0
 0.0 0.0
 0.0 1.0
 0.0 1.0
 0.0 0.0
 0.0 0.0

16
 1.0 0.0
 0.0 1.0
 1.0 0.0
 1.0 0.0
 0.0 1.0
 0.0 1.0
 0.0 0.0
 0.0 0.0

16
 1.0 0.0
 0.0 1.0
 1.0 0.0
 1.0 0.0
 0.0 1.0
 0.0 1.0
 0.0 0.0
 0.0 0.0

16
 0.0 0.0
 0.0 1.0
 0.0 0.0
 0.0 0.0
 0.0 1.0
 0.0 1.0
 0.0 0.0
 0.0 0.0

16
 1.0 0.0
 0.0 1.0
 1.0 0.0
 1.0 0.0
 0.0 1.0
 0.0 1.0
 0.0 0.0
 0.0 0.0

16
 0.0 0.0
 0.0 1.0
 0.0 0.0
 0.0 0.0
 0.0 1.0
 0.0 1.0
 0.0 0.0
 0.0 0.0

